NAME : STSP_125-1over3.3.3.1143.tour
COMMENT : Length = 1143
COMMENT : Found by LKH-3 [Keld Helsgaun]
TYPE : TOUR
DIMENSION : 41
TOUR_SECTION
82
67
85
25
32
109
20
92
58
62
9
62
47
111
122
17
122
114
98
75
21
15
4
28
72
79
107
34
95
11
84
11
97
27
104
99
73
63
37
3
31
89
69
123
5
1
61
101
71
68
71
12
40
50
40
90
14
78
91
7
53
115
88
23
70
23
26
103
46
103
74
113
24
55
94
81
83
19
59
16
13
57
56
35
105
43
-1
EOF
